Minimize
  - 40 y_0 - 32 y_1 - 33 y_2 - 46 y_3 - 4 y_4 - 10 y_5 - 41 y_6 - 41 y_7
   - 53 y_8 - 32 y_9 - 25 y_10 - 20 y_11 - 56 y_12 - 22 y_13 - 84 y_14
   - 41 y_15 - 48 y_16 - 39 y_17 - 76 y_18 + 743 Constant
Subject To
 c_0: y_17 = 1
 c_1_0: y_0 + y_12 >= 1
 c_1_1: y_1 + y_2 + y_3 + y_13 + y_15 >= 1
 c_1_2: y_1 + y_2 + y_11 + y_13 >= 1
 c_1_3: y_1 + y_3 + y_15 >= 1
 c_1_4: y_4 + y_5 + y_11 + y_13 + y_19 >= 1
 c_1_5: y_4 + y_5 + y_10 + y_13 + y_19 >= 1
 c_1_6: y_6 + y_8 >= 1
 c_1_7: y_7 >= 1
 c_1_8: y_6 + y_8 >= 1
 c_1_9: y_9 + y_10 >= 1
 c_1_10: y_5 + y_9 + y_10 + y_13 >= 1
 c_1_11: y_2 + y_4 + y_11 + y_17 + y_19 >= 1
 c_1_12: y_0 + y_12 >= 1
 c_1_13: y_1 + y_2 + y_4 + y_5 + y_10 + y_13 + y_15 >= 1
 c_1_14: y_14 + y_18 >= 1
 c_1_15: y_1 + y_3 + y_13 + y_15 >= 1
 c_1_16: y_16 >= 1
 c_1_17: y_11 + y_17 >= 1
 c_1_18: y_14 + y_18 >= 1
 c_1_19: y_4 + y_5 + y_11 + y_19 >= 1
Bounds
 Constant = 1
Binaries
 y_0 y_1 y_2 y_3 y_4 y_5 y_6 y_7 y_8 y_9 y_10 y_11 y_12 y_13 y_14 y_15 y_16
 y_17 y_18 y_19
End
